NAME : sim161.130061.tour
COMMENT : Length = 130061
COMMENT : Found by LKH [Keld Helsgaun] Sat Sep 15 10:09:07 2018
TYPE : TOUR
DIMENSION : 161
TOUR_SECTION
1
155
91
22
135
154
42
147
41
139
19
3
14
88
123
31
119
152
99
161
116
63
98
84
8
100
29
117
32
130
159
148
142
69
64
55
89
75
15
5
86
92
126
118
120
66
70
93
4
136
30
12
72
53
17
36
11
57
113
45
124
20
18
134
59
34
158
146
26
81
23
2
6
94
82
105
114
156
111
9
108
160
96
61
62
50
79
65
71
144
106
74
140
28
76
13
77
33
153
7
49
21
24
67
83
103
121
73
131
104
125
27
54
107
78
25
56
43
150
60
143
40
48
149
122
58
128
46
110
39
145
90
115
151
137
10
138
141
102
132
16
44
85
112
47
87
95
80
52
68
35
133
97
37
51
38
109
101
127
129
157
-1
EOF
